experiments/knapsack_bounded/knapsack_bounded_20_10.mps
NAME
ROWS
 N  OBJ
 L  c1
 L  c2
 L  c3
 L  c4
 L  c5
 L  c6
 L  c7
 L  c8
 L  c9
 L  c10
 L  c11
 L  c12
 L  c13
 L  c14
 L  c15
 L  c16
 L  c17
 L  c18
 L  c19
 L  c20
 L  c21
COLUMNS
    MARKER    'MARKER'                 'INTORG'
    x[1]      c1        355
    x[1]      c2        1
    x[1]      OBJ       -635
    x[2]      c1        505
    x[2]      c3        1
    x[2]      OBJ       -255
    x[3]      c1        752
    x[3]      c4        1
    x[3]      OBJ       -750
    x[4]      c1        540
    x[4]      c5        1
    x[4]      OBJ       -582
    x[5]      c1        129
    x[5]      c6        1
    x[5]      OBJ       -687
    x[6]      c1        342
    x[6]      c7        1
    x[6]      OBJ       -22
    x[7]      c1        20
    x[7]      c8        1
    x[7]      OBJ       -804
    x[8]      c1        97
    x[8]      c9        1
    x[8]      OBJ       -562
    x[9]      c1        609
    x[9]      c10       1
    x[9]      OBJ       -489
    x[10]     c1        403
    x[10]     c11       1
    x[10]     OBJ       -740
    x[11]     c1        435
    x[11]     c12       1
    x[11]     OBJ       -304
    x[12]     c1        793
    x[12]     c13       1
    x[12]     OBJ       -77
    x[13]     c1        341
    x[13]     c14       1
    x[13]     OBJ       -296
    x[14]     c1        197
    x[14]     c15       1
    x[14]     OBJ       -482
    x[15]     c1        64
    x[15]     c16       1
    x[15]     OBJ       -530
    x[16]     c1        123
    x[16]     c17       1
    x[16]     OBJ       -729
    x[17]     c1        609
    x[17]     c18       1
    x[17]     OBJ       -902
    x[18]     c1        160
    x[18]     c19       1
    x[18]     OBJ       -241
    x[19]     c1        470
    x[19]     c20       1
    x[19]     OBJ       -408
    x[20]     c1        502
    x[20]     c21       1
    x[20]     OBJ       -193
    MARKER    'MARKER'                 'INTEND'
RHS
    rhs       c1        3723
    rhs       c2        4
    rhs       c3        1
    rhs       c4        1
    rhs       c5        8
    rhs       c6        7
    rhs       c7        9
    rhs       c8        10
    rhs       c9        10
    rhs       c10       1
    rhs       c11       7
    rhs       c12       1
    rhs       c13       5
    rhs       c14       2
    rhs       c15       7
    rhs       c16       1
    rhs       c17       4
    rhs       c18       7
    rhs       c19       3
    rhs       c20       8
    rhs       c21       2
RANGES
BOUNDS
 LO bounds    x[1]      0
 PL bounds    x[1]
 LO bounds    x[2]      0
 PL bounds    x[2]
 LO bounds    x[3]      0
 PL bounds    x[3]
 LO bounds    x[4]      0
 PL bounds    x[4]
 LO bounds    x[5]      0
 PL bounds    x[5]
 LO bounds    x[6]      0
 PL bounds    x[6]
 LO bounds    x[7]      0
 PL bounds    x[7]
 LO bounds    x[8]      0
 PL bounds    x[8]
 LO bounds    x[9]      0
 PL bounds    x[9]
 LO bounds    x[10]     0
 PL bounds    x[10]
 LO bounds    x[11]     0
 PL bounds    x[11]
 LO bounds    x[12]     0
 PL bounds    x[12]
 LO bounds    x[13]     0
 PL bounds    x[13]
 LO bounds    x[14]     0
 PL bounds    x[14]
 LO bounds    x[15]     0
 PL bounds    x[15]
 LO bounds    x[16]     0
 PL bounds    x[16]
 LO bounds    x[17]     0
 PL bounds    x[17]
 LO bounds    x[18]     0
 PL bounds    x[18]
 LO bounds    x[19]     0
 PL bounds    x[19]
 LO bounds    x[20]     0
 PL bounds    x[20]
ENDATA
