experiments/knapsack_bounded/knapsack_bounded_20_10.mps.log
Algorithm statistics:
zero_reductions => 74613
max_basis_size => 1115
queued_pairs => 0
built_pairs => 76139
reduced_pairs => 76139
eliminated_by_truncation => 431
removed_by_autoreduction => 0
eliminated_by_gcd => 544916
time => 0.073969787
memory => 0.04096653312444687
4ti2 results
4ti2 time => 0.082901842
